c
c start with comments
c
p cnf 28 16
-17 -5 -12 0
5 -28 0
19 -17 -14 0
-2 -4 18 0
12 6 0
28 -9 35 -13 0
1 2 0
3 32 0
34 -10 0
-32 14 0
29 -27 29 0
-34 -25 0
-6 -11 0
-17 26 22 0
22 -8 33 -16 0
-29 -23 0